;; translated from ./ctigar/dillig37.c.vmt
;; original benchmark available at: https://es-static.fbk.eu/people/griggio/ic3ia/index.html
;; author: Alberto Griggio <griggio@fbk.eu>
(set-logic HORN)
(declare-fun state (Bool Bool Bool Bool Bool Int Int Int) Bool)
(assert (forall ((|.s.2| Bool) (|.s.0| Bool) (|.s.1| Bool) (|.s.4.next| Bool) (|.s.0.next| Bool) (|.s.1.next| Bool) (|.s.2.next| Bool) (|.s.3.next| Bool) (|main.x.next| Int) (|main.x| Int) (|main.m.next| Int) (|main.m| Int) (|main.n.next| Int) (|main.n| Int) (|.inputVar.0| Int) (|.s.4| Bool) (|.s.3| Bool)) (=> (let ((.def_20 (not .s.4)))
(let ((.def_17 (not .s.3)))
(let ((.def_14 (not .s.2)))
(let ((.def_10 (not .s.1)))
(let ((.def_12 (and .def_10 .s.0)))
(let ((.def_15 (and .def_12 .def_14)))
(let ((.def_18 (and .def_15 .def_17)))
(let ((.def_21 (and .def_18 .def_20)))
.def_21)))))))) (state |.s.1| |.s.0| |.s.2| |.s.3| |.s.4| |main.x| |main.m| |main.n|))))
(assert (forall ((|.s.2| Bool) (|.s.0| Bool) (|.s.1| Bool) (|.s.4.next| Bool) (|.s.0.next| Bool) (|.s.1.next| Bool) (|.s.2.next| Bool) (|.s.3.next| Bool) (|main.x.next| Int) (|main.x| Int) (|main.m.next| Int) (|main.m| Int) (|main.n.next| Int) (|main.n| Int) (|.inputVar.0| Int) (|.s.4| Bool) (|.s.3| Bool)) (=> (and (state |.s.1| |.s.0| |.s.2| |.s.3| |.s.4| |main.x| |main.m| |main.n|) (let ((.def_22 (not .s.0)))
(let ((.def_10 (not .s.1)))
(let ((.def_23 (and .def_10 .def_22)))
(let ((.def_14 (not .s.2)))
(let ((.def_24 (and .def_14 .def_23)))
(let ((.def_17 (not .s.3)))
(let ((.def_25 (and .def_17 .def_24)))
(let ((.def_20 (not .s.4)))
(let ((.def_256 (and .def_20 .def_25)))
(let ((.def_257 (not .def_256)))
(let ((.def_62 (not .s.4.next)))
(let ((.def_35 (not .s.0.next)))
(let ((.def_33 (not .s.1.next)))
(let ((.def_36 (and .def_33 .def_35)))
(let ((.def_31 (not .s.2.next)))
(let ((.def_37 (and .def_31 .def_36)))
(let ((.def_29 (not .s.3.next)))
(let ((.def_38 (and .def_29 .def_37)))
(let ((.def_73 (and .def_38 .def_62)))
(let ((.def_43 (= main.x main.x.next)))
(let ((.def_74 (and .def_43 .def_73)))
(let ((.def_47 (= main.m main.m.next)))
(let ((.def_75 (and .def_47 .def_74)))
(let ((.def_51 (= main.n main.n.next)))
(let ((.def_76 (and .def_51 .def_75)))
(let ((.def_258 (or .def_76 .def_257)))
(let ((.def_251 (= main.x.next 0)))
(let ((.def_82 (and .s.1.next .def_35)))
(let ((.def_153 (and .def_31 .def_82)))
(let ((.def_173 (and .def_29 .def_153)))
(let ((.def_174 (and .def_62 .def_173)))
(let ((.def_252 (and .def_174 .def_251)))
(let ((.def_250 (= main.m.next 0)))
(let ((.def_253 (and .def_250 .def_252)))
(let ((.def_254 (and .def_51 .def_253)))
(let ((.def_12 (and .def_10 .s.0)))
(let ((.def_15 (and .def_12 .def_14)))
(let ((.def_18 (and .def_15 .def_17)))
(let ((.def_21 (and .def_18 .def_20)))
(let ((.def_249 (not .def_21)))
(let ((.def_255 (or .def_249 .def_254)))
(let ((.def_259 (and .def_255 .def_258)))
(let ((.def_59 (and .s.1.next .s.0.next)))
(let ((.def_133 (and .def_31 .def_59)))
(let ((.def_243 (and .def_29 .def_133)))
(let ((.def_244 (and .def_62 .def_243)))
(let ((.def_245 (and .def_43 .def_244)))
(let ((.def_246 (and .def_47 .def_245)))
(let ((.def_247 (and .def_51 .def_246)))
(let ((.def_229 (* (- 1) main.n)))
(let ((.def_230 (+ main.x .def_229)))
(let ((.def_231 (<= .def_230 (- 1))))
(let ((.def_68 (and .s.1 .def_22)))
(let ((.def_124 (and .def_14 .def_68)))
(let ((.def_227 (and .def_17 .def_124)))
(let ((.def_228 (and .def_20 .def_227)))
(let ((.def_241 (and .def_228 .def_231)))
(let ((.def_242 (not .def_241)))
(let ((.def_248 (or .def_242 .def_247)))
(let ((.def_260 (and .def_248 .def_259)))
(let ((.def_235 (and .s.3.next .def_37)))
(let ((.def_236 (and .def_62 .def_235)))
(let ((.def_237 (and .def_43 .def_236)))
(let ((.def_238 (and .def_47 .def_237)))
(let ((.def_239 (and .def_51 .def_238)))
(let ((.def_232 (not .def_231)))
(let ((.def_233 (and .def_228 .def_232)))
(let ((.def_234 (not .def_233)))
(let ((.def_240 (or .def_234 .def_239)))
(let ((.def_261 (and .def_240 .def_260)))
(let ((.def_214 (= .inputVar.0 0)))
(let ((.def_223 (not .def_214)))
(let ((.def_54 (and .s.1 .s.0)))
(let ((.def_113 (and .def_14 .def_54)))
(let ((.def_210 (and .def_17 .def_113)))
(let ((.def_211 (and .def_20 .def_210)))
(let ((.def_224 (and .def_211 .def_223)))
(let ((.def_225 (not .def_224)))
(let ((.def_83 (and .s.2.next .def_82)))
(let ((.def_194 (and .def_29 .def_83)))
(let ((.def_195 (and .def_62 .def_194)))
(let ((.def_196 (and .def_43 .def_195)))
(let ((.def_197 (and .def_47 .def_196)))
(let ((.def_198 (and .def_51 .def_197)))
(let ((.def_226 (or .def_198 .def_225)))
(let ((.def_262 (and .def_226 .def_261)))
(let ((.def_117 (and .s.2.next .def_36)))
(let ((.def_217 (and .def_29 .def_117)))
(let ((.def_218 (and .def_62 .def_217)))
(let ((.def_219 (and .def_43 .def_218)))
(let ((.def_220 (and .def_47 .def_219)))
(let ((.def_221 (and .def_51 .def_220)))
(let ((.def_215 (and .def_211 .def_214)))
(let ((.def_216 (not .def_215)))
(let ((.def_222 (or .def_216 .def_221)))
(let ((.def_263 (and .def_222 .def_262)))
(let ((.def_105 (and .def_33 .s.0.next)))
(let ((.def_106 (and .s.2.next .def_105)))
(let ((.def_204 (and .def_29 .def_106)))
(let ((.def_205 (and .def_62 .def_204)))
(let ((.def_203 (= main.x main.m.next)))
(let ((.def_206 (and .def_203 .def_205)))
(let ((.def_207 (and .def_43 .def_206)))
(let ((.def_208 (and .def_51 .def_207)))
(let ((.def_90 (and .s.2 .def_23)))
(let ((.def_200 (and .def_17 .def_90)))
(let ((.def_201 (and .def_20 .def_200)))
(let ((.def_202 (not .def_201)))
(let ((.def_209 (or .def_202 .def_208)))
(let ((.def_264 (and .def_209 .def_263)))
(let ((.def_78 (and .def_12 .s.2)))
(let ((.def_191 (and .def_17 .def_78)))
(let ((.def_192 (and .def_20 .def_191)))
(let ((.def_193 (not .def_192)))
(let ((.def_199 (or .def_193 .def_198)))
(let ((.def_265 (and .def_199 .def_264)))
(let ((.def_60 (and .s.2.next .def_59)))
(let ((.def_185 (and .def_29 .def_60)))
(let ((.def_186 (and .def_62 .def_185)))
(let ((.def_182 (* (- 1) main.x.next)))
(let ((.def_183 (+ main.x .def_182)))
(let ((.def_184 (= .def_183 (- 1))))
(let ((.def_187 (and .def_184 .def_186)))
(let ((.def_188 (and .def_47 .def_187)))
(let ((.def_189 (and .def_51 .def_188)))
(let ((.def_69 (and .s.2 .def_68)))
(let ((.def_179 (and .def_17 .def_69)))
(let ((.def_180 (and .def_20 .def_179)))
(let ((.def_181 (not .def_180)))
(let ((.def_190 (or .def_181 .def_189)))
(let ((.def_266 (and .def_190 .def_265)))
(let ((.def_175 (and .def_43 .def_174)))
(let ((.def_176 (and .def_47 .def_175)))
(let ((.def_177 (and .def_51 .def_176)))
(let ((.def_55 (and .s.2 .def_54)))
(let ((.def_170 (and .def_17 .def_55)))
(let ((.def_171 (and .def_20 .def_170)))
(let ((.def_172 (not .def_171)))
(let ((.def_178 (or .def_172 .def_177)))
(let ((.def_267 (and .def_178 .def_266)))
(let ((.def_163 (and .def_31 .def_105)))
(let ((.def_164 (and .s.3.next .def_163)))
(let ((.def_165 (and .def_62 .def_164)))
(let ((.def_166 (and .def_43 .def_165)))
(let ((.def_167 (and .def_47 .def_166)))
(let ((.def_168 (and .def_51 .def_167)))
(let ((.def_150 (<= main.n main.x)))
(let ((.def_160 (not .def_150)))
(let ((.def_148 (and .s.3 .def_24)))
(let ((.def_149 (and .def_20 .def_148)))
(let ((.def_161 (and .def_149 .def_160)))
(let ((.def_162 (not .def_161)))
(let ((.def_169 (or .def_162 .def_168)))
(let ((.def_268 (and .def_169 .def_267)))
(let ((.def_154 (and .s.3.next .def_153)))
(let ((.def_155 (and .def_62 .def_154)))
(let ((.def_156 (and .def_43 .def_155)))
(let ((.def_157 (and .def_47 .def_156)))
(let ((.def_158 (and .def_51 .def_157)))
(let ((.def_151 (and .def_149 .def_150)))
(let ((.def_152 (not .def_151)))
(let ((.def_159 (or .def_152 .def_158)))
(let ((.def_269 (and .def_159 .def_268)))
(let ((.def_144 (and .def_15 .s.3)))
(let ((.def_145 (and .def_20 .def_144)))
(let ((.def_146 (not .def_145)))
(let ((.def_147 (or .def_76 .def_146)))
(let ((.def_270 (and .def_147 .def_269)))
(let ((.def_128 (<= main.m (- 1))))
(let ((.def_129 (not .def_128)))
(let ((.def_96 (<= 1 main.n)))
(let ((.def_97 (not .def_96)))
(let ((.def_130 (or .def_97 .def_129)))
(let ((.def_140 (not .def_130)))
(let ((.def_125 (and .s.3 .def_124)))
(let ((.def_126 (and .def_20 .def_125)))
(let ((.def_141 (and .def_126 .def_140)))
(let ((.def_142 (not .def_141)))
(let ((.def_40 (and .def_38 .s.4.next)))
(let ((.def_44 (and .def_40 .def_43)))
(let ((.def_48 (and .def_44 .def_47)))
(let ((.def_52 (and .def_48 .def_51)))
(let ((.def_143 (or .def_52 .def_142)))
(let ((.def_271 (and .def_143 .def_270)))
(let ((.def_134 (and .s.3.next .def_133)))
(let ((.def_135 (and .def_62 .def_134)))
(let ((.def_136 (and .def_43 .def_135)))
(let ((.def_137 (and .def_47 .def_136)))
(let ((.def_138 (and .def_51 .def_137)))
(let ((.def_131 (and .def_126 .def_130)))
(let ((.def_132 (not .def_131)))
(let ((.def_139 (or .def_132 .def_138)))
(let ((.def_272 (and .def_139 .def_271)))
(let ((.def_118 (and .s.3.next .def_117)))
(let ((.def_119 (and .def_62 .def_118)))
(let ((.def_120 (and .def_43 .def_119)))
(let ((.def_121 (and .def_47 .def_120)))
(let ((.def_122 (and .def_51 .def_121)))
(let ((.def_114 (and .s.3 .def_113)))
(let ((.def_115 (and .def_20 .def_114)))
(let ((.def_116 (not .def_115)))
(let ((.def_123 (or .def_116 .def_122)))
(let ((.def_273 (and .def_123 .def_272)))
(let ((.def_107 (and .s.3.next .def_106)))
(let ((.def_108 (and .def_62 .def_107)))
(let ((.def_109 (and .def_43 .def_108)))
(let ((.def_110 (and .def_47 .def_109)))
(let ((.def_111 (and .def_51 .def_110)))
(let ((.def_93 (<= main.n main.m)))
(let ((.def_94 (not .def_93)))
(let ((.def_98 (or .def_94 .def_97)))
(let ((.def_91 (and .s.3 .def_90)))
(let ((.def_92 (and .def_20 .def_91)))
(let ((.def_103 (and .def_92 .def_98)))
(let ((.def_104 (not .def_103)))
(let ((.def_112 (or .def_104 .def_111)))
(let ((.def_274 (and .def_112 .def_273)))
(let ((.def_99 (not .def_98)))
(let ((.def_100 (and .def_92 .def_99)))
(let ((.def_101 (not .def_100)))
(let ((.def_61 (and .s.3.next .def_60)))
(let ((.def_63 (and .def_61 .def_62)))
(let ((.def_64 (and .def_43 .def_63)))
(let ((.def_65 (and .def_47 .def_64)))
(let ((.def_66 (and .def_51 .def_65)))
(let ((.def_102 (or .def_66 .def_101)))
(let ((.def_275 (and .def_102 .def_274)))
(let ((.def_84 (and .s.3.next .def_83)))
(let ((.def_85 (and .def_62 .def_84)))
(let ((.def_86 (and .def_43 .def_85)))
(let ((.def_87 (and .def_47 .def_86)))
(let ((.def_88 (and .def_51 .def_87)))
(let ((.def_79 (and .s.3 .def_78)))
(let ((.def_80 (and .def_20 .def_79)))
(let ((.def_81 (not .def_80)))
(let ((.def_89 (or .def_81 .def_88)))
(let ((.def_276 (and .def_89 .def_275)))
(let ((.def_70 (and .s.3 .def_69)))
(let ((.def_71 (and .def_20 .def_70)))
(let ((.def_72 (not .def_71)))
(let ((.def_77 (or .def_72 .def_76)))
(let ((.def_277 (and .def_77 .def_276)))
(let ((.def_56 (and .s.3 .def_55)))
(let ((.def_57 (and .def_20 .def_56)))
(let ((.def_58 (not .def_57)))
(let ((.def_67 (or .def_58 .def_66)))
(let ((.def_278 (and .def_67 .def_277)))
(let ((.def_26 (and .s.4 .def_25)))
(let ((.def_27 (not .def_26)))
(let ((.def_53 (or .def_27 .def_52)))
(let ((.def_279 (and .def_53 .def_278)))
.def_279)))))))))))))))))))))))))))))))))))))))))))))))))))))))))))))))))))))))))))))))))))))))))))))))))))))))))))))))))))))))))))))))))))))))))))))))))))))))))))))))))))))))))))))))))))))))))))))))))))))))))))))))))))))))))))))))))))))))))))))))))))))))))))) (state |.s.1.next| |.s.0.next| |.s.2.next| |.s.3.next| |.s.4.next| |main.x.next| |main.m.next| |main.n.next|))))
(assert (forall ((|.s.2| Bool) (|.s.0| Bool) (|.s.1| Bool) (|.s.4.next| Bool) (|.s.0.next| Bool) (|.s.1.next| Bool) (|.s.2.next| Bool) (|.s.3.next| Bool) (|main.x.next| Int) (|main.x| Int) (|main.m.next| Int) (|main.m| Int) (|main.n.next| Int) (|main.n| Int) (|.inputVar.0| Int) (|.s.4| Bool) (|.s.3| Bool)) (=> (state |.s.1| |.s.0| |.s.2| |.s.3| |.s.4| |main.x| |main.m| |main.n|) (let ((.def_54 (and .s.1 .s.0)))
(let ((.def_55 (and .s.2 .def_54)))
(let ((.def_56 (and .s.3 .def_55)))
(let ((.def_20 (not .s.4)))
(let ((.def_57 (and .def_20 .def_56)))
(let ((.def_58 (not .def_57)))
(let ((.def_22 (not .s.0)))
(let ((.def_10 (not .s.1)))
(let ((.def_23 (and .def_10 .def_22)))
(let ((.def_14 (not .s.2)))
(let ((.def_24 (and .def_14 .def_23)))
(let ((.def_17 (not .s.3)))
(let ((.def_25 (and .def_17 .def_24)))
(let ((.def_26 (and .s.4 .def_25)))
(let ((.def_27 (not .def_26)))
(let ((.def_280 (and .def_27 .def_58)))
.def_280)))))))))))))))))))
(check-sat)
